12 
2 
5 -7 
-1.000000000000000000e+00 -1.000000000000000000e+00 -1.000000000000000000e+00 -1.000000000000000000e+00 -1.000000000000000000e+00 -1.000000000000000000e+00 -1.000000000000000000e+00 1.000000000000000000e+00 1.000000000000000000e+00 1.000000000000000000e+00 1.000000000000000000e+00 1.000000000000000000e+00 
0 1 1 2 -1.000000000000000000e+00 
0 1 1 3 -1.000000000000000000e+00 
0 1 1 4 1.000000000000000056e-01 
0 1 1 5 -1.000000000000000000e+00 
0 1 2 3 -1.000000000000000000e+00 
0 1 2 5 -1.000000000000000000e+00 
0 1 3 4 -1.000000000000000000e+00 
0 1 4 5 -1.000000000000000000e+00 
1 1 1 2 1.000000000000000000e+00 
1 2 1 1 -1.000000000000000000e+00 
2 1 1 3 1.000000000000000000e+00 
2 2 2 2 -1.000000000000000000e+00 
3 1 1 5 1.000000000000000000e+00 
3 2 3 3 -1.000000000000000000e+00 
4 1 2 3 1.000000000000000000e+00 
4 2 4 4 -1.000000000000000000e+00 
5 1 2 5 1.000000000000000000e+00 
5 2 5 5 -1.000000000000000000e+00 
6 1 3 4 1.000000000000000000e+00 
6 2 6 6 -1.000000000000000000e+00 
7 1 4 5 1.000000000000000000e+00 
7 2 7 7 -1.000000000000000000e+00 
8 1 1 1 1.000000000000000000e+00 
9 1 2 2 1.000000000000000000e+00 
10 1 3 3 1.000000000000000000e+00 
11 1 4 4 1.000000000000000000e+00 
12 1 5 5 1.000000000000000000e+00 
